% Generated by MiniZinc 2.9.3
% Solver library: /home/void/Workspace-Research/Code/fzn-minicpp/minizinc
% Command line invocation: minizinc --solver org.minicpp.ml --compile --no-output-ozn bpp-sat.mzn dzn/Falkenauer_t249_19.dzn -D n_bins=83 -o fzn-sat/Falkenauer_t249_19.fzn 

predicate minicpp_bin_packing_load(array [int] of var int: l,array [int] of var int: bin,array [int] of int: w);
array [1..249] of int: weights = [499,498,496,496,493,492,489,488,488,487,487,485,484,484,484,482,478,476,475,474,472,471,470,469,469,468,468,467,467,466,466,464,464,462,460,459,458,457,454,452,450,448,446,445,442,442,442,441,439,434,432,427,427,427,425,424,423,420,419,419,418,417,417,413,410,409,406,405,405,404,403,401,396,389,378,377,377,370,366,363,361,356,353,353,353,350,347,342,341,339,337,335,332,331,326,326,325,324,323,322,320,320,318,318,318,316,315,314,313,313,312,312,309,308,306,305,305,303,299,299,298,296,296,296,293,291,291,290,289,289,288,287,286,285,284,284,284,283,282,282,281,280,280,280,280,279,278,278,278,277,277,277,276,275,275,274,274,274,273,273,273,272,271,271,271,271,271,271,270,270,270,270,270,269,269,268,268,267,267,266,266,264,264,264,263,263,263,263,262,262,261,261,261,261,260,260,260,260,260,260,259,259,259,259,258,258,258,257,257,256,256,256,256,256,256,256,255,255,255,255,255,254,254,254,254,253,253,253,253,253,252,252,252,252,252,252,251,251,251,251,251,251,251,250,250,250,250,250,250];
var 1..83: X_INTRODUCED_16_;
var 1..83: X_INTRODUCED_17_;
var 1..83: X_INTRODUCED_18_;
var 1..83: X_INTRODUCED_19_;
var 1..83: X_INTRODUCED_20_;
var 1..83: X_INTRODUCED_21_;
var 1..83: X_INTRODUCED_22_;
var 1..83: X_INTRODUCED_23_;
var 1..83: X_INTRODUCED_24_;
var 1..83: X_INTRODUCED_25_;
var 1..83: X_INTRODUCED_26_;
var 1..83: X_INTRODUCED_27_;
var 1..83: X_INTRODUCED_28_;
var 1..83: X_INTRODUCED_29_;
var 1..83: X_INTRODUCED_30_;
var 1..83: X_INTRODUCED_31_;
var 1..83: X_INTRODUCED_32_;
var 1..83: X_INTRODUCED_33_;
var 1..83: X_INTRODUCED_34_;
var 1..83: X_INTRODUCED_35_;
var 1..83: X_INTRODUCED_36_;
var 1..83: X_INTRODUCED_37_;
var 1..83: X_INTRODUCED_38_;
var 1..83: X_INTRODUCED_39_;
var 1..83: X_INTRODUCED_40_;
var 1..83: X_INTRODUCED_41_;
var 1..83: X_INTRODUCED_42_;
var 1..83: X_INTRODUCED_43_;
var 1..83: X_INTRODUCED_44_;
var 1..83: X_INTRODUCED_45_;
var 1..83: X_INTRODUCED_46_;
var 1..83: X_INTRODUCED_47_;
var 1..83: X_INTRODUCED_48_;
var 1..83: X_INTRODUCED_49_;
var 1..83: X_INTRODUCED_50_;
var 1..83: X_INTRODUCED_51_;
var 1..83: X_INTRODUCED_52_;
var 1..83: X_INTRODUCED_53_;
var 1..83: X_INTRODUCED_54_;
var 1..83: X_INTRODUCED_55_;
var 1..83: X_INTRODUCED_56_;
var 1..83: X_INTRODUCED_57_;
var 1..83: X_INTRODUCED_58_;
var 1..83: X_INTRODUCED_59_;
var 1..83: X_INTRODUCED_60_;
var 1..83: X_INTRODUCED_61_;
var 1..83: X_INTRODUCED_62_;
var 1..83: X_INTRODUCED_63_;
var 1..83: X_INTRODUCED_64_;
var 1..83: X_INTRODUCED_65_;
var 1..83: X_INTRODUCED_66_;
var 1..83: X_INTRODUCED_67_;
var 1..83: X_INTRODUCED_68_;
var 1..83: X_INTRODUCED_69_;
var 1..83: X_INTRODUCED_70_;
var 1..83: X_INTRODUCED_71_;
var 1..83: X_INTRODUCED_72_;
var 1..83: X_INTRODUCED_73_;
var 1..83: X_INTRODUCED_74_;
var 1..83: X_INTRODUCED_75_;
var 1..83: X_INTRODUCED_76_;
var 1..83: X_INTRODUCED_77_;
var 1..83: X_INTRODUCED_78_;
var 1..83: X_INTRODUCED_79_;
var 1..83: X_INTRODUCED_80_;
var 1..83: X_INTRODUCED_81_;
var 1..83: X_INTRODUCED_82_;
var 1..83: X_INTRODUCED_83_;
var 1..83: X_INTRODUCED_84_;
var 1..83: X_INTRODUCED_85_;
var 1..83: X_INTRODUCED_86_;
var 1..83: X_INTRODUCED_87_;
var 1..83: X_INTRODUCED_88_;
var 1..83: X_INTRODUCED_89_;
var 1..83: X_INTRODUCED_90_;
var 1..83: X_INTRODUCED_91_;
var 1..83: X_INTRODUCED_92_;
var 1..83: X_INTRODUCED_93_;
var 1..83: X_INTRODUCED_94_;
var 1..83: X_INTRODUCED_95_;
var 1..83: X_INTRODUCED_96_;
var 1..83: X_INTRODUCED_97_;
var 1..83: X_INTRODUCED_98_;
var 1..83: X_INTRODUCED_99_;
var 1..83: X_INTRODUCED_100_;
var 1..83: X_INTRODUCED_101_;
var 1..83: X_INTRODUCED_102_;
var 1..83: X_INTRODUCED_103_;
var 1..83: X_INTRODUCED_104_;
var 1..83: X_INTRODUCED_105_;
var 1..83: X_INTRODUCED_106_;
var 1..83: X_INTRODUCED_107_;
var 1..83: X_INTRODUCED_108_;
var 1..83: X_INTRODUCED_109_;
var 1..83: X_INTRODUCED_110_;
var 1..83: X_INTRODUCED_111_;
var 1..83: X_INTRODUCED_112_;
var 1..83: X_INTRODUCED_113_;
var 1..83: X_INTRODUCED_114_;
var 1..83: X_INTRODUCED_115_;
var 1..83: X_INTRODUCED_116_;
var 1..83: X_INTRODUCED_117_;
var 1..83: X_INTRODUCED_118_;
var 1..83: X_INTRODUCED_119_;
var 1..83: X_INTRODUCED_120_;
var 1..83: X_INTRODUCED_121_;
var 1..83: X_INTRODUCED_122_;
var 1..83: X_INTRODUCED_123_;
var 1..83: X_INTRODUCED_124_;
var 1..83: X_INTRODUCED_125_;
var 1..83: X_INTRODUCED_126_;
var 1..83: X_INTRODUCED_127_;
var 1..83: X_INTRODUCED_128_;
var 1..83: X_INTRODUCED_129_;
var 1..83: X_INTRODUCED_130_;
var 1..83: X_INTRODUCED_131_;
var 1..83: X_INTRODUCED_132_;
var 1..83: X_INTRODUCED_133_;
var 1..83: X_INTRODUCED_134_;
var 1..83: X_INTRODUCED_135_;
var 1..83: X_INTRODUCED_136_;
var 1..83: X_INTRODUCED_137_;
var 1..83: X_INTRODUCED_138_;
var 1..83: X_INTRODUCED_139_;
var 1..83: X_INTRODUCED_140_;
var 1..83: X_INTRODUCED_141_;
var 1..83: X_INTRODUCED_142_;
var 1..83: X_INTRODUCED_143_;
var 1..83: X_INTRODUCED_144_;
var 1..83: X_INTRODUCED_145_;
var 1..83: X_INTRODUCED_146_;
var 1..83: X_INTRODUCED_147_;
var 1..83: X_INTRODUCED_148_;
var 1..83: X_INTRODUCED_149_;
var 1..83: X_INTRODUCED_150_;
var 1..83: X_INTRODUCED_151_;
var 1..83: X_INTRODUCED_152_;
var 1..83: X_INTRODUCED_153_;
var 1..83: X_INTRODUCED_154_;
var 1..83: X_INTRODUCED_155_;
var 1..83: X_INTRODUCED_156_;
var 1..83: X_INTRODUCED_157_;
var 1..83: X_INTRODUCED_158_;
var 1..83: X_INTRODUCED_159_;
var 1..83: X_INTRODUCED_160_;
var 1..83: X_INTRODUCED_161_;
var 1..83: X_INTRODUCED_162_;
var 1..83: X_INTRODUCED_163_;
var 1..83: X_INTRODUCED_164_;
var 1..83: X_INTRODUCED_165_;
var 1..83: X_INTRODUCED_166_;
var 1..83: X_INTRODUCED_167_;
var 1..83: X_INTRODUCED_168_;
var 1..83: X_INTRODUCED_169_;
var 1..83: X_INTRODUCED_170_;
var 1..83: X_INTRODUCED_171_;
var 1..83: X_INTRODUCED_172_;
var 1..83: X_INTRODUCED_173_;
var 1..83: X_INTRODUCED_174_;
var 1..83: X_INTRODUCED_175_;
var 1..83: X_INTRODUCED_176_;
var 1..83: X_INTRODUCED_177_;
var 1..83: X_INTRODUCED_178_;
var 1..83: X_INTRODUCED_179_;
var 1..83: X_INTRODUCED_180_;
var 1..83: X_INTRODUCED_181_;
var 1..83: X_INTRODUCED_182_;
var 1..83: X_INTRODUCED_183_;
var 1..83: X_INTRODUCED_184_;
var 1..83: X_INTRODUCED_185_;
var 1..83: X_INTRODUCED_186_;
var 1..83: X_INTRODUCED_187_;
var 1..83: X_INTRODUCED_188_;
var 1..83: X_INTRODUCED_189_;
var 1..83: X_INTRODUCED_190_;
var 1..83: X_INTRODUCED_191_;
var 1..83: X_INTRODUCED_192_;
var 1..83: X_INTRODUCED_193_;
var 1..83: X_INTRODUCED_194_;
var 1..83: X_INTRODUCED_195_;
var 1..83: X_INTRODUCED_196_;
var 1..83: X_INTRODUCED_197_;
var 1..83: X_INTRODUCED_198_;
var 1..83: X_INTRODUCED_199_;
var 1..83: X_INTRODUCED_200_;
var 1..83: X_INTRODUCED_201_;
var 1..83: X_INTRODUCED_202_;
var 1..83: X_INTRODUCED_203_;
var 1..83: X_INTRODUCED_204_;
var 1..83: X_INTRODUCED_205_;
var 1..83: X_INTRODUCED_206_;
var 1..83: X_INTRODUCED_207_;
var 1..83: X_INTRODUCED_208_;
var 1..83: X_INTRODUCED_209_;
var 1..83: X_INTRODUCED_210_;
var 1..83: X_INTRODUCED_211_;
var 1..83: X_INTRODUCED_212_;
var 1..83: X_INTRODUCED_213_;
var 1..83: X_INTRODUCED_214_;
var 1..83: X_INTRODUCED_215_;
var 1..83: X_INTRODUCED_216_;
var 1..83: X_INTRODUCED_217_;
var 1..83: X_INTRODUCED_218_;
var 1..83: X_INTRODUCED_219_;
var 1..83: X_INTRODUCED_220_;
var 1..83: X_INTRODUCED_221_;
var 1..83: X_INTRODUCED_222_;
var 1..83: X_INTRODUCED_223_;
var 1..83: X_INTRODUCED_224_;
var 1..83: X_INTRODUCED_225_;
var 1..83: X_INTRODUCED_226_;
var 1..83: X_INTRODUCED_227_;
var 1..83: X_INTRODUCED_228_;
var 1..83: X_INTRODUCED_229_;
var 1..83: X_INTRODUCED_230_;
var 1..83: X_INTRODUCED_231_;
var 1..83: X_INTRODUCED_232_;
var 1..83: X_INTRODUCED_233_;
var 1..83: X_INTRODUCED_234_;
var 1..83: X_INTRODUCED_235_;
var 1..83: X_INTRODUCED_236_;
var 1..83: X_INTRODUCED_237_;
var 1..83: X_INTRODUCED_238_;
var 1..83: X_INTRODUCED_239_;
var 1..83: X_INTRODUCED_240_;
var 1..83: X_INTRODUCED_241_;
var 1..83: X_INTRODUCED_242_;
var 1..83: X_INTRODUCED_243_;
var 1..83: X_INTRODUCED_244_;
var 1..83: X_INTRODUCED_245_;
var 1..83: X_INTRODUCED_246_;
var 1..83: X_INTRODUCED_247_;
var 1..83: X_INTRODUCED_248_;
var 1..83: X_INTRODUCED_249_;
var 1..83: X_INTRODUCED_250_;
var 1..83: X_INTRODUCED_251_;
var 1..83: X_INTRODUCED_252_;
var 1..83: X_INTRODUCED_253_;
var 1..83: X_INTRODUCED_254_;
var 1..83: X_INTRODUCED_255_;
var 1..83: X_INTRODUCED_256_;
var 1..83: X_INTRODUCED_257_;
var 1..83: X_INTRODUCED_258_;
var 1..83: X_INTRODUCED_259_;
var 1..83: X_INTRODUCED_260_;
var 1..83: X_INTRODUCED_261_;
var 1..83: X_INTRODUCED_262_;
var 1..83: X_INTRODUCED_263_;
var 1..83: X_INTRODUCED_264_;
var 0..1000: X_INTRODUCED_267_ ::var_is_introduced ;
var 0..1000: X_INTRODUCED_268_ ::var_is_introduced ;
var 0..1000: X_INTRODUCED_269_ ::var_is_introduced ;
var 0..1000: X_INTRODUCED_270_ ::var_is_introduced ;
var 0..1000: X_INTRODUCED_271_ ::var_is_introduced ;
var 0..1000: X_INTRODUCED_272_ ::var_is_introduced ;
var 0..1000: X_INTRODUCED_273_ ::var_is_introduced ;
var 0..1000: X_INTRODUCED_274_ ::var_is_introduced ;
var 0..1000: X_INTRODUCED_275_ ::var_is_introduced ;
var 0..1000: X_INTRODUCED_276_ ::var_is_introduced ;
var 0..1000: X_INTRODUCED_277_ ::var_is_introduced ;
var 0..1000: X_INTRODUCED_278_ ::var_is_introduced ;
var 0..1000: X_INTRODUCED_279_ ::var_is_introduced ;
var 0..1000: X_INTRODUCED_280_ ::var_is_introduced ;
var 0..1000: X_INTRODUCED_281_ ::var_is_introduced ;
var 0..1000: X_INTRODUCED_282_ ::var_is_introduced ;
var 0..1000: X_INTRODUCED_283_ ::var_is_introduced ;
var 0..1000: X_INTRODUCED_284_ ::var_is_introduced ;
var 0..1000: X_INTRODUCED_285_ ::var_is_introduced ;
var 0..1000: X_INTRODUCED_286_ ::var_is_introduced ;
var 0..1000: X_INTRODUCED_287_ ::var_is_introduced ;
var 0..1000: X_INTRODUCED_288_ ::var_is_introduced ;
var 0..1000: X_INTRODUCED_289_ ::var_is_introduced ;
var 0..1000: X_INTRODUCED_290_ ::var_is_introduced ;
var 0..1000: X_INTRODUCED_291_ ::var_is_introduced ;
var 0..1000: X_INTRODUCED_292_ ::var_is_introduced ;
var 0..1000: X_INTRODUCED_293_ ::var_is_introduced ;
var 0..1000: X_INTRODUCED_294_ ::var_is_introduced ;
var 0..1000: X_INTRODUCED_295_ ::var_is_introduced ;
var 0..1000: X_INTRODUCED_296_ ::var_is_introduced ;
var 0..1000: X_INTRODUCED_297_ ::var_is_introduced ;
var 0..1000: X_INTRODUCED_298_ ::var_is_introduced ;
var 0..1000: X_INTRODUCED_299_ ::var_is_introduced ;
var 0..1000: X_INTRODUCED_300_ ::var_is_introduced ;
var 0..1000: X_INTRODUCED_301_ ::var_is_introduced ;
var 0..1000: X_INTRODUCED_302_ ::var_is_introduced ;
var 0..1000: X_INTRODUCED_303_ ::var_is_introduced ;
var 0..1000: X_INTRODUCED_304_ ::var_is_introduced ;
var 0..1000: X_INTRODUCED_305_ ::var_is_introduced ;
var 0..1000: X_INTRODUCED_306_ ::var_is_introduced ;
var 0..1000: X_INTRODUCED_307_ ::var_is_introduced ;
var 0..1000: X_INTRODUCED_308_ ::var_is_introduced ;
var 0..1000: X_INTRODUCED_309_ ::var_is_introduced ;
var 0..1000: X_INTRODUCED_310_ ::var_is_introduced ;
var 0..1000: X_INTRODUCED_311_ ::var_is_introduced ;
var 0..1000: X_INTRODUCED_312_ ::var_is_introduced ;
var 0..1000: X_INTRODUCED_313_ ::var_is_introduced ;
var 0..1000: X_INTRODUCED_314_ ::var_is_introduced ;
var 0..1000: X_INTRODUCED_315_ ::var_is_introduced ;
var 0..1000: X_INTRODUCED_316_ ::var_is_introduced ;
var 0..1000: X_INTRODUCED_317_ ::var_is_introduced ;
var 0..1000: X_INTRODUCED_318_ ::var_is_introduced ;
var 0..1000: X_INTRODUCED_319_ ::var_is_introduced ;
var 0..1000: X_INTRODUCED_320_ ::var_is_introduced ;
var 0..1000: X_INTRODUCED_321_ ::var_is_introduced ;
var 0..1000: X_INTRODUCED_322_ ::var_is_introduced ;
var 0..1000: X_INTRODUCED_323_ ::var_is_introduced ;
var 0..1000: X_INTRODUCED_324_ ::var_is_introduced ;
var 0..1000: X_INTRODUCED_325_ ::var_is_introduced ;
var 0..1000: X_INTRODUCED_326_ ::var_is_introduced ;
var 0..1000: X_INTRODUCED_327_ ::var_is_introduced ;
var 0..1000: X_INTRODUCED_328_ ::var_is_introduced ;
var 0..1000: X_INTRODUCED_329_ ::var_is_introduced ;
var 0..1000: X_INTRODUCED_330_ ::var_is_introduced ;
var 0..1000: X_INTRODUCED_331_ ::var_is_introduced ;
var 0..1000: X_INTRODUCED_332_ ::var_is_introduced ;
var 0..1000: X_INTRODUCED_333_ ::var_is_introduced ;
var 0..1000: X_INTRODUCED_334_ ::var_is_introduced ;
var 0..1000: X_INTRODUCED_335_ ::var_is_introduced ;
var 0..1000: X_INTRODUCED_336_ ::var_is_introduced ;
var 0..1000: X_INTRODUCED_337_ ::var_is_introduced ;
var 0..1000: X_INTRODUCED_338_ ::var_is_introduced ;
var 0..1000: X_INTRODUCED_339_ ::var_is_introduced ;
var 0..1000: X_INTRODUCED_340_ ::var_is_introduced ;
var 0..1000: X_INTRODUCED_341_ ::var_is_introduced ;
var 0..1000: X_INTRODUCED_342_ ::var_is_introduced ;
var 0..1000: X_INTRODUCED_343_ ::var_is_introduced ;
var 0..1000: X_INTRODUCED_344_ ::var_is_introduced ;
var 0..1000: X_INTRODUCED_345_ ::var_is_introduced ;
var 0..1000: X_INTRODUCED_346_ ::var_is_introduced ;
var 0..1000: X_INTRODUCED_347_ ::var_is_introduced ;
var 0..1000: X_INTRODUCED_348_ ::var_is_introduced ;
var 0..1000: X_INTRODUCED_349_ ::var_is_introduced ;
array [1..249] of var int: items_bin:: output_array([1..249]) = [X_INTRODUCED_16_,X_INTRODUCED_17_,X_INTRODUCED_18_,X_INTRODUCED_19_,X_INTRODUCED_20_,X_INTRODUCED_21_,X_INTRODUCED_22_,X_INTRODUCED_23_,X_INTRODUCED_24_,X_INTRODUCED_25_,X_INTRODUCED_26_,X_INTRODUCED_27_,X_INTRODUCED_28_,X_INTRODUCED_29_,X_INTRODUCED_30_,X_INTRODUCED_31_,X_INTRODUCED_32_,X_INTRODUCED_33_,X_INTRODUCED_34_,X_INTRODUCED_35_,X_INTRODUCED_36_,X_INTRODUCED_37_,X_INTRODUCED_38_,X_INTRODUCED_39_,X_INTRODUCED_40_,X_INTRODUCED_41_,X_INTRODUCED_42_,X_INTRODUCED_43_,X_INTRODUCED_44_,X_INTRODUCED_45_,X_INTRODUCED_46_,X_INTRODUCED_47_,X_INTRODUCED_48_,X_INTRODUCED_49_,X_INTRODUCED_50_,X_INTRODUCED_51_,X_INTRODUCED_52_,X_INTRODUCED_53_,X_INTRODUCED_54_,X_INTRODUCED_55_,X_INTRODUCED_56_,X_INTRODUCED_57_,X_INTRODUCED_58_,X_INTRODUCED_59_,X_INTRODUCED_60_,X_INTRODUCED_61_,X_INTRODUCED_62_,X_INTRODUCED_63_,X_INTRODUCED_64_,X_INTRODUCED_65_,X_INTRODUCED_66_,X_INTRODUCED_67_,X_INTRODUCED_68_,X_INTRODUCED_69_,X_INTRODUCED_70_,X_INTRODUCED_71_,X_INTRODUCED_72_,X_INTRODUCED_73_,X_INTRODUCED_74_,X_INTRODUCED_75_,X_INTRODUCED_76_,X_INTRODUCED_77_,X_INTRODUCED_78_,X_INTRODUCED_79_,X_INTRODUCED_80_,X_INTRODUCED_81_,X_INTRODUCED_82_,X_INTRODUCED_83_,X_INTRODUCED_84_,X_INTRODUCED_85_,X_INTRODUCED_86_,X_INTRODUCED_87_,X_INTRODUCED_88_,X_INTRODUCED_89_,X_INTRODUCED_90_,X_INTRODUCED_91_,X_INTRODUCED_92_,X_INTRODUCED_93_,X_INTRODUCED_94_,X_INTRODUCED_95_,X_INTRODUCED_96_,X_INTRODUCED_97_,X_INTRODUCED_98_,X_INTRODUCED_99_,X_INTRODUCED_100_,X_INTRODUCED_101_,X_INTRODUCED_102_,X_INTRODUCED_103_,X_INTRODUCED_104_,X_INTRODUCED_105_,X_INTRODUCED_106_,X_INTRODUCED_107_,X_INTRODUCED_108_,X_INTRODUCED_109_,X_INTRODUCED_110_,X_INTRODUCED_111_,X_INTRODUCED_112_,X_INTRODUCED_113_,X_INTRODUCED_114_,X_INTRODUCED_115_,X_INTRODUCED_116_,X_INTRODUCED_117_,X_INTRODUCED_118_,X_INTRODUCED_119_,X_INTRODUCED_120_,X_INTRODUCED_121_,X_INTRODUCED_122_,X_INTRODUCED_123_,X_INTRODUCED_124_,X_INTRODUCED_125_,X_INTRODUCED_126_,X_INTRODUCED_127_,X_INTRODUCED_128_,X_INTRODUCED_129_,X_INTRODUCED_130_,X_INTRODUCED_131_,X_INTRODUCED_132_,X_INTRODUCED_133_,X_INTRODUCED_134_,X_INTRODUCED_135_,X_INTRODUCED_136_,X_INTRODUCED_137_,X_INTRODUCED_138_,X_INTRODUCED_139_,X_INTRODUCED_140_,X_INTRODUCED_141_,X_INTRODUCED_142_,X_INTRODUCED_143_,X_INTRODUCED_144_,X_INTRODUCED_145_,X_INTRODUCED_146_,X_INTRODUCED_147_,X_INTRODUCED_148_,X_INTRODUCED_149_,X_INTRODUCED_150_,X_INTRODUCED_151_,X_INTRODUCED_152_,X_INTRODUCED_153_,X_INTRODUCED_154_,X_INTRODUCED_155_,X_INTRODUCED_156_,X_INTRODUCED_157_,X_INTRODUCED_158_,X_INTRODUCED_159_,X_INTRODUCED_160_,X_INTRODUCED_161_,X_INTRODUCED_162_,X_INTRODUCED_163_,X_INTRODUCED_164_,X_INTRODUCED_165_,X_INTRODUCED_166_,X_INTRODUCED_167_,X_INTRODUCED_168_,X_INTRODUCED_169_,X_INTRODUCED_170_,X_INTRODUCED_171_,X_INTRODUCED_172_,X_INTRODUCED_173_,X_INTRODUCED_174_,X_INTRODUCED_175_,X_INTRODUCED_176_,X_INTRODUCED_177_,X_INTRODUCED_178_,X_INTRODUCED_179_,X_INTRODUCED_180_,X_INTRODUCED_181_,X_INTRODUCED_182_,X_INTRODUCED_183_,X_INTRODUCED_184_,X_INTRODUCED_185_,X_INTRODUCED_186_,X_INTRODUCED_187_,X_INTRODUCED_188_,X_INTRODUCED_189_,X_INTRODUCED_190_,X_INTRODUCED_191_,X_INTRODUCED_192_,X_INTRODUCED_193_,X_INTRODUCED_194_,X_INTRODUCED_195_,X_INTRODUCED_196_,X_INTRODUCED_197_,X_INTRODUCED_198_,X_INTRODUCED_199_,X_INTRODUCED_200_,X_INTRODUCED_201_,X_INTRODUCED_202_,X_INTRODUCED_203_,X_INTRODUCED_204_,X_INTRODUCED_205_,X_INTRODUCED_206_,X_INTRODUCED_207_,X_INTRODUCED_208_,X_INTRODUCED_209_,X_INTRODUCED_210_,X_INTRODUCED_211_,X_INTRODUCED_212_,X_INTRODUCED_213_,X_INTRODUCED_214_,X_INTRODUCED_215_,X_INTRODUCED_216_,X_INTRODUCED_217_,X_INTRODUCED_218_,X_INTRODUCED_219_,X_INTRODUCED_220_,X_INTRODUCED_221_,X_INTRODUCED_222_,X_INTRODUCED_223_,X_INTRODUCED_224_,X_INTRODUCED_225_,X_INTRODUCED_226_,X_INTRODUCED_227_,X_INTRODUCED_228_,X_INTRODUCED_229_,X_INTRODUCED_230_,X_INTRODUCED_231_,X_INTRODUCED_232_,X_INTRODUCED_233_,X_INTRODUCED_234_,X_INTRODUCED_235_,X_INTRODUCED_236_,X_INTRODUCED_237_,X_INTRODUCED_238_,X_INTRODUCED_239_,X_INTRODUCED_240_,X_INTRODUCED_241_,X_INTRODUCED_242_,X_INTRODUCED_243_,X_INTRODUCED_244_,X_INTRODUCED_245_,X_INTRODUCED_246_,X_INTRODUCED_247_,X_INTRODUCED_248_,X_INTRODUCED_249_,X_INTRODUCED_250_,X_INTRODUCED_251_,X_INTRODUCED_252_,X_INTRODUCED_253_,X_INTRODUCED_254_,X_INTRODUCED_255_,X_INTRODUCED_256_,X_INTRODUCED_257_,X_INTRODUCED_258_,X_INTRODUCED_259_,X_INTRODUCED_260_,X_INTRODUCED_261_,X_INTRODUCED_262_,X_INTRODUCED_263_,X_INTRODUCED_264_];
array [1..83] of var int: X_INTRODUCED_266_ ::var_is_introduced  = [X_INTRODUCED_267_,X_INTRODUCED_268_,X_INTRODUCED_269_,X_INTRODUCED_270_,X_INTRODUCED_271_,X_INTRODUCED_272_,X_INTRODUCED_273_,X_INTRODUCED_274_,X_INTRODUCED_275_,X_INTRODUCED_276_,X_INTRODUCED_277_,X_INTRODUCED_278_,X_INTRODUCED_279_,X_INTRODUCED_280_,X_INTRODUCED_281_,X_INTRODUCED_282_,X_INTRODUCED_283_,X_INTRODUCED_284_,X_INTRODUCED_285_,X_INTRODUCED_286_,X_INTRODUCED_287_,X_INTRODUCED_288_,X_INTRODUCED_289_,X_INTRODUCED_290_,X_INTRODUCED_291_,X_INTRODUCED_292_,X_INTRODUCED_293_,X_INTRODUCED_294_,X_INTRODUCED_295_,X_INTRODUCED_296_,X_INTRODUCED_297_,X_INTRODUCED_298_,X_INTRODUCED_299_,X_INTRODUCED_300_,X_INTRODUCED_301_,X_INTRODUCED_302_,X_INTRODUCED_303_,X_INTRODUCED_304_,X_INTRODUCED_305_,X_INTRODUCED_306_,X_INTRODUCED_307_,X_INTRODUCED_308_,X_INTRODUCED_309_,X_INTRODUCED_310_,X_INTRODUCED_311_,X_INTRODUCED_312_,X_INTRODUCED_313_,X_INTRODUCED_314_,X_INTRODUCED_315_,X_INTRODUCED_316_,X_INTRODUCED_317_,X_INTRODUCED_318_,X_INTRODUCED_319_,X_INTRODUCED_320_,X_INTRODUCED_321_,X_INTRODUCED_322_,X_INTRODUCED_323_,X_INTRODUCED_324_,X_INTRODUCED_325_,X_INTRODUCED_326_,X_INTRODUCED_327_,X_INTRODUCED_328_,X_INTRODUCED_329_,X_INTRODUCED_330_,X_INTRODUCED_331_,X_INTRODUCED_332_,X_INTRODUCED_333_,X_INTRODUCED_334_,X_INTRODUCED_335_,X_INTRODUCED_336_,X_INTRODUCED_337_,X_INTRODUCED_338_,X_INTRODUCED_339_,X_INTRODUCED_340_,X_INTRODUCED_341_,X_INTRODUCED_342_,X_INTRODUCED_343_,X_INTRODUCED_344_,X_INTRODUCED_345_,X_INTRODUCED_346_,X_INTRODUCED_347_,X_INTRODUCED_348_,X_INTRODUCED_349_];
constraint minicpp_bin_packing_load(X_INTRODUCED_266_,items_bin,weights);
solve :: int_search(items_bin,input_order,indomain_min,complete) satisfy;
